Route #1: 72 48 33 84 79 74 30 22 155 25 138 34
Route #2: 49 14 120 26 128 142 62 97 87 65 16 75
Route #3: 15 147 118 20 68 36 103 93 99 69 122 38
Route #4: 143 32 42 3 106 73 135 21 121 54 110 41
Route #5: 131 133 50 154 98 123 53 144 85 140 31 23
Route #6: 17 67 4 35 6 115 55 95 105 152 56 61
Route #7: 37 116 19 46 145 127 104 130 124 44 27 101
Route #8: 92 137 7 28 66 94 86 111 132 102 96 59
Route #9: 71 149 8 150 156 24 43 141 64 63 13 148
Route #10: 70 139 125 78 146 80 40 108 9 117 1 126
Route #11: 2 119 60 109 81 89 112 136 76 153 5 47
Route #12: 129 91 100 51 90 83 45 77 11 82 113 151
Route #13: 18 107 52 134 10 39 58 29 114 12 57 88
Cost 16882
